objective value:                 0.000860553924999852
x_1_2                                               1 	(obj:0)
x_2_3                                               1 	(obj:0)
x_3_2                                               1 	(obj:0)
x_4_4                                               1 	(obj:0)
x_5_4                                               1 	(obj:0)
x_6_3                               0.999999999999897 	(obj:0)
x_7_3                                1.00000000000005 	(obj:0)
x_8_2                                               1 	(obj:0)
x_9_4                                1.00000000000042 	(obj:0)
x_10_4                                              1 	(obj:0)
x_11_2                                              1 	(obj:0)
x_12_2                                1.0000000000012 	(obj:0)
x_13_3                                              1 	(obj:0)
x_14_3                                              1 	(obj:0)
x_15_4                                              1 	(obj:0)
x_16_2                                              1 	(obj:0)
x_17_3                                              1 	(obj:0)
x_18_3                                              1 	(obj:0)
x_19_2                                              1 	(obj:0)
x_20_2                                              1 	(obj:0)
ind_2                                               1 	(obj:0)
abs_2_4                                             1 	(obj:0)
ind_3                                               1 	(obj:0)
abs_3_2                                             1 	(obj:0)
ind_4                                               1 	(obj:0)
abs_4_3                                             1 	(obj:0)
epsI                             0.000860553924999852 	(obj:1)
prodt_x_19_2_t_x_20_2_coh_2                         1 	(obj:0)
prodt_x_1_2_t_x_2_2_more_coh_2           3.8612767741 	(obj:0)
prodt_x_3_2_t_x_4_2_more_coh_2           3.1504807856 	(obj:0)
prodt_x_8_2_t_x_11_2_more_coh_2           3.404528938 	(obj:0)
prodt_x_11_2_t_x_12_2_more_coh_2          2.276538551 	(obj:0)
prodt_x_12_2_t_x_13_2_more_coh_2         2.5261027468 	(obj:0)
prodt_x_16_2_t_x_17_2_more_coh_2         1.0745619859 	(obj:0)
prodt_x_2_3_t_x_3_3_more_coh_3       6.11586957599993 	(obj:0)
prodt_x_6_3_t_x_7_3_more_coh_3         4.673885351199 	(obj:0)
prodt_x_7_3_t_x_9_3_more_coh_3           3.7684865433 	(obj:0)
prodt_x_13_3_t_x_15_3_more_coh_3            3.5737745 	(obj:0)
prodt_x_14_3_t_x_15_3_more_coh_3          0.763135224 	(obj:0)
prodt_x_17_3_t_x_18_3_more_coh_3         1.1816063348 	(obj:0)
prodt_x_4_4_t_x_5_4_more_coh_4             2.96175491 	(obj:0)
prodt_x_5_4_t_x_6_4_more_coh_4            2.686558065 	(obj:0)
prodt_x_9_4_t_x_14_4_more_coh_4           2.293519507 	(obj:0)
prodt_x_10_4_t_x_11_4_more_coh_4         1.8616404912 	(obj:0)
prodt_x_1_2_t_x_2_2_more_irrev1_2_1     1.38135939696277 	(obj:0)
prodt_x_1_2_t_x_2_2_more_irrev2_2_1    -1.38135939696277 	(obj:0)
prodt_x_1_2_t_x_2_3_more_irrev1_3_1     1.27350857769193 	(obj:0)
prodt_x_1_2_t_x_2_3_more_irrev2_3_1    -1.27350857769193 	(obj:0)
prodt_x_1_2_t_x_2_3_more_irrev1_3_2    -1.27350857769193 	(obj:0)
prodt_x_2_3_t_x_3_2_more_irrev1_3_2   -0.634221619080568 	(obj:0)
prodt_x_3_2_t_x_4_3_more_irrev1_3_2    -3.54072551821101 	(obj:0)
prodt_x_6_3_t_x_7_2_more_irrev1_3_2    -3.74190506688564 	(obj:0)
prodt_x_7_3_t_x_10_2_more_irrev1_3_2   -0.358422179999853 	(obj:0)
prodt_x_8_2_t_x_9_3_more_irrev1_3_2    -1.33597404035019 	(obj:0)
prodt_x_11_2_t_x_13_3_more_irrev1_3_2    -2.85540565647834 	(obj:0)
prodt_x_12_2_t_x_14_3_more_irrev1_3_2   -0.314212229999085 	(obj:0)
prodt_x_13_3_t_x_17_2_more_irrev1_3_2   -0.867004903588699 	(obj:0)
prodt_x_14_3_t_x_15_2_more_irrev1_3_2    -2.19107132160926 	(obj:0)
prodt_x_16_2_t_x_20_3_more_irrev1_3_2   -0.580881515494711 	(obj:0)
prodt_x_17_3_t_x_18_2_more_irrev1_3_2   -0.142854268769832 	(obj:0)
prodt_x_18_3_t_x_19_2_more_irrev1_3_2      1.7486105233941 	(obj:0)
prodt_x_1_2_t_x_2_3_more_irrev2_3_2     1.27350857769193 	(obj:0)
prodt_x_2_3_t_x_3_2_more_irrev2_3_2    0.634221619080568 	(obj:0)
prodt_x_3_2_t_x_4_3_more_irrev2_3_2     3.54072551821101 	(obj:0)
prodt_x_6_3_t_x_7_2_more_irrev2_3_2     3.74190506688558 	(obj:0)
prodt_x_7_3_t_x_10_2_more_irrev2_3_2    0.358422179999995 	(obj:0)
prodt_x_8_2_t_x_9_3_more_irrev2_3_2     1.33597404035019 	(obj:0)
prodt_x_11_2_t_x_13_3_more_irrev2_3_2     2.85540565647834 	(obj:0)
prodt_x_12_2_t_x_14_3_more_irrev2_3_2    0.314212230001524 	(obj:0)
prodt_x_13_3_t_x_17_2_more_irrev2_3_2    0.867004903588699 	(obj:0)
prodt_x_14_3_t_x_15_2_more_irrev2_3_2     2.19107132160926 	(obj:0)
prodt_x_16_2_t_x_20_3_more_irrev2_3_2    0.580881515494711 	(obj:0)
prodt_x_17_3_t_x_18_2_more_irrev2_3_2    0.142854268769832 	(obj:0)
prodt_x_18_3_t_x_19_2_more_irrev2_3_2      1.7486105233941 	(obj:0)
prodt_x_1_2_t_x_5_4_more_irrev1_4_1    -2.66025477191466 	(obj:0)
prodt_x_1_2_t_x_5_4_more_irrev2_4_1     2.66025477191466 	(obj:0)
prodt_x_1_2_t_x_5_4_more_irrev1_4_2     2.66025477191466 	(obj:0)
prodt_x_3_2_t_x_4_4_more_irrev1_4_2    0.329458578772231 	(obj:0)
prodt_x_4_4_t_x_7_2_more_irrev1_4_2     1.13012879000055 	(obj:0)
prodt_x_5_4_t_x_7_2_more_irrev1_4_2     2.89628718378436 	(obj:0)
prodt_x_8_2_t_x_9_4_more_irrev1_4_2     1.75126183724736 	(obj:0)
prodt_x_9_4_t_x_11_2_more_irrev1_4_2     2.80014380835198 	(obj:0)
prodt_x_10_4_t_x_12_2_more_irrev1_4_2    0.798701883618021 	(obj:0)
prodt_x_11_2_t_x_13_4_more_irrev1_4_2    0.184337623490277 	(obj:0)
prodt_x_12_2_t_x_14_4_more_irrev1_4_2    0.751287680000909 	(obj:0)
prodt_x_15_4_t_x_16_2_more_irrev1_4_2     1.67491136976317 	(obj:0)
prodt_x_1_2_t_x_5_4_more_irrev2_4_2    -2.66025477191466 	(obj:0)
prodt_x_3_2_t_x_4_4_more_irrev2_4_2    -0.32945857877223 	(obj:0)
prodt_x_4_4_t_x_7_2_more_irrev2_4_2    -1.13012879000057 	(obj:0)
prodt_x_5_4_t_x_7_2_more_irrev2_4_2    -2.89628718378436 	(obj:0)
prodt_x_8_2_t_x_9_4_more_irrev2_4_2    -1.75126183724736 	(obj:0)
prodt_x_9_4_t_x_11_2_more_irrev2_4_2    -2.80014380834964 	(obj:0)
prodt_x_10_4_t_x_12_2_more_irrev2_4_2   -0.798701883618021 	(obj:0)
prodt_x_11_2_t_x_13_4_more_irrev2_4_2   -0.184337623490277 	(obj:0)
prodt_x_12_2_t_x_14_4_more_irrev2_4_2   -0.751287679998471 	(obj:0)
prodt_x_15_4_t_x_16_2_more_irrev2_4_2    -1.67491136976317 	(obj:0)
prodt_x_2_3_t_x_4_4_more_irrev1_4_3    -2.41312222813486 	(obj:0)
prodt_x_4_4_t_x_7_3_more_irrev1_4_3     -2.2278133900009 	(obj:0)
prodt_x_5_4_t_x_7_3_more_irrev1_4_3   -0.668690785759904 	(obj:0)
prodt_x_6_3_t_x_7_4_more_irrev1_4_3    -1.07172760369802 	(obj:0)
prodt_x_7_3_t_x_8_4_more_irrev1_4_3    -1.58198778000009 	(obj:0)
prodt_x_9_4_t_x_11_3_more_irrev1_4_3     -0.7713488086796 	(obj:0)
prodt_x_10_4_t_x_12_3_more_irrev1_4_3    -2.42937440958416 	(obj:0)
prodt_x_13_3_t_x_14_4_more_irrev1_4_3                   -1 	(obj:0)
prodt_x_14_3_t_x_16_4_more_irrev1_4_3  -0.0402039286471011 	(obj:0)
prodt_x_15_4_t_x_16_3_more_irrev1_4_3    -1.43042551964485 	(obj:0)
prodt_x_2_3_t_x_4_4_more_irrev2_4_3     2.41312222813486 	(obj:0)
prodt_x_4_4_t_x_7_3_more_irrev2_4_3      2.2278133900009 	(obj:0)
prodt_x_5_4_t_x_7_3_more_irrev2_4_3    0.668690785759904 	(obj:0)
prodt_x_6_3_t_x_7_4_more_irrev2_4_3     1.07172760369709 	(obj:0)
prodt_x_7_3_t_x_8_4_more_irrev2_4_3     1.58198778000009 	(obj:0)
prodt_x_9_4_t_x_11_3_more_irrev2_4_3    0.771348808679597 	(obj:0)
prodt_x_10_4_t_x_12_3_more_irrev2_4_3     2.42937440958416 	(obj:0)
prodt_x_13_3_t_x_14_4_more_irrev2_4_3                    1 	(obj:0)
prodt_x_14_3_t_x_16_4_more_irrev2_4_3   0.0402039286471011 	(obj:0)
prodt_x_15_4_t_x_16_3_more_irrev2_4_3     1.43042551964485 	(obj:0)
SCIP Status        : solving was interrupted [time limit reached]
Total Time         :    3600.00
  solving          :    3600.00
  presolving       :       0.05 (included in solving)
  reading          :       0.00
  copying          :       1.25 (137 #copies) (minimal 0.00, maximal 0.02, average 0.01)
Original Problem   :
  Problem name     : ../instances/Pot4/Pot4_T_20B_alpha=11.txt.spa
  Variables        : 101 (100 binary, 0 integer, 0 implicit integer, 1 continuous)
  Constraints      : 193 initial, 193 maximal
  Objective sense  : maximize
Presolved Problem  :
  Problem name     : t_../instances/Pot4/Pot4_T_20B_alpha=11.txt.spa
  Variables        : 590 (92 binary, 0 integer, 16 implicit integer, 482 continuous)
  Constraints      : 2015 initial, 8329 maximal
Presolvers         :   ExecTime  SetupTime  Calls  FixedVars   AggrVars   ChgTypes  ChgBounds   AddHoles    DelCons    AddCons   ChgSides   ChgCoefs
  boundshift       :       0.00       0.00      0          0          0          0          0          0          0          0          0          0
  components       :       0.00       0.00      1          0          0          0          0          0          0          0          0          0
  convertinttobin  :       0.00       0.00      0          0          0          0          0          0          0          0          0          0
  domcol           :       0.00       0.00      1          0          0          0          0          0          0          0          0          0
  dualagg          :       0.00       0.00      0          0          0          0          0          0          0          0          0          0
  dualinfer        :       0.00       0.00      0          0          0          0          0          0          0          0          0          0
  gateextraction   :       0.00       0.00      3          0          0          0          0          0        108         34          0          0
  implfree         :       0.00       0.00      0          0          0          0          0          0          0          0          0          0
  implics          :       0.00       0.00      4          0          0          0          0          0          0          0          0          0
  inttobinary      :       0.00       0.00      0          0          0          0          0          0          0          0          0          0
  redvub           :       0.00       0.00      0          0          0          0          0          0          0          0          0          0
  stuffing         :       0.00       0.00      1          0          0          0          0          0          0          0          0          0
  trivial          :       0.00       0.00      7          0          0          0          0          0          0          0          0          0
  tworowbnd        :       0.00       0.00      0          0          0          0          0          0          0          0          0          0
  dualfix          :       0.00       0.00      7          4          0          0          0          0          0          0          0          0
  genvbounds       :       0.00       0.00      0          0          0          0          0          0          0          0          0          0
  probing          :       0.03       0.00      1          0          0          0          4          0          0          0          0          0
  pseudoobj        :       0.00       0.00      0          0          0          0          0          0          0          0          0          0
  varbound         :       0.00       0.00      9          0          0          0          0          0         28         28          0          0
  setppc           :       0.00       0.00     12          0          0          0          0          0          0          0          0          0
  and              :       0.00       0.00      4          0         12          0          0          0         12          0          0          0
  linear           :       0.00       0.00      9          3          1          0          4          0          7          0         12         12
  logicor          :       0.01       0.00      7          0          0          0          0          0          0          0          0          0
  bounddisjunction :       0.00       0.00      0          0          0          0          0          0          0          0          0          0
  quadratic        :       0.01       0.00      2          0          0          0          0          0          0       1915          0          0
  root node        :          -          -      -          1          -          -         82          -          -          -          -          -
Constraints        :     Number  MaxNumber  #Separate #Propagate    #EnfoLP    #EnfoPS     #Check   #ResProp    Cutoffs    DomReds       Cuts    Applied      Conss   Children
  integral         :          0          0          0          0    2121594          0     461912          0          0      51692          0          0        139    4227460
  varbound         :        869        869         81   12793158       3820          0     143096    4217113      79938   84242245          0          0          0          0
  setppc           :        110+       233         81   12712045       3819          0       1773    2452159      16607    5424584          6          1          0          0
  and              :         22         22     136706     745872       1990          0       1324     366842          7      82437        645        620          0          0
  linear           :        979        979         81   12696611       3692          0       1260    2099293     242642  124319598     155713     155504          0          0
  logicor          :         35+      1304         70    3390940          0          0          0      49886       2259     145594          0          0          0          0
  bounddisjunction :          0+      4985          0    5518931          0          0          0     548862       4476    6824751          0          0          0          0
  countsols        :          0          0          0          0          4          0     318590          0          0          0          0          0          0          0
Constraint Timings :  TotalTime  SetupTime   Separate  Propagate     EnfoLP     EnfoPS      Check    ResProp    SB-Prop
  integral         :      18.10       0.00       0.00       0.00      18.07       0.00       0.03       0.00       0.00
  varbound         :      62.64       0.00       0.00      61.34       0.01       0.00       0.57       0.61       0.11
  setppc           :      38.59       0.00       0.00      37.91       0.00       0.00       0.00       0.55       0.13
  and              :       0.44       0.00       0.08       0.25       0.00       0.00       0.00       0.10       0.01
  linear           :     178.54       0.00       0.01     176.66       0.13       0.00       0.01       1.39       0.34
  logicor          :      19.17       0.00       0.00      19.13       0.00       0.00       0.00       0.03       0.01
  bounddisjunction :     127.46       0.00       0.00     127.32       0.00       0.00       0.00       0.10       0.04
  countsols        :       0.01       0.00       0.00       0.00       0.00       0.00       0.01       0.00       0.00
Propagators        : #Propagate   #ResProp    Cutoffs    DomReds
  dualfix          :          2          0          0          0
  genvbounds       :          0          0          0          0
  obbt             :          0          0          0          0
  probing          :          0          0          0          0
  pseudoobj        :   13469744          0       5270         80
  redcost          :    4635391          0          5     582715
  rootredcost      :          5          0          0          1
  vbounds          :   14914197      33040          8      25575
Propagator Timings :  TotalTime  SetupTime   Presolve  Propagate    ResProp    SB-Prop
  dualfix          :       0.00       0.00       0.00       0.00       0.00       0.00
  genvbounds       :       1.78       0.00       0.00       1.78       0.00       0.00
  obbt             :       0.00       0.00       0.00       0.00       0.00       0.00
  probing          :       0.03       0.00       0.03       0.00       0.00       0.00
  pseudoobj        :       3.76       0.00       0.00       3.76       0.00       0.00
  redcost          :      22.22       0.00       0.00      22.22       0.00       0.00
  rootredcost      :       2.01       0.00       0.00       2.00       0.00       0.01
  vbounds          :       4.66       0.00       0.00       4.64       0.01       0.01
Conflict Analysis  :       Time      Calls    Success    DomReds  Conflicts   Literals    Reconvs ReconvLits   LP Iters
  propagation      :       5.11     111264     110833          -    1137902       35.7       7978       44.2          -
  infeasible LP    :      11.65      85230      80007          -    1227779       37.2        112       13.3          0
  bound exceed. LP :       0.00          0          0          -          0        0.0          0        0.0          0
  strong branching :       0.00          0          0          -          0        0.0          0        0.0          0
  pseudo solution  :       0.00          0          0          -          0        0.0          0        0.0          -
  applied globally :       4.06          -          -          0     372034       19.7          -          -          -
  applied locally  :          -          -          -          0       4103       35.0          -          -          -
Separators         :   ExecTime  SetupTime      Calls    Cutoffs    DomReds       Cuts    Applied      Conss
  cut pool         :       0.00                    80          -          -       1215          -          -    (maximal pool size: 958)
  cgmip            :       0.00       0.00          0          0          0          0          0          0
  clique           :       0.00       0.00         81          0          0         37         29          0
  closecuts        :       0.00       0.00          0          0          0          0          0          0
  cmir             :       0.01       0.00         10          0          0        327        272          0
  disjunctive      :       0.00       0.00          0          0          0          0          0          0
  eccuts           :       0.00       0.00          0          0          0          0          0          0
  flowcover        :       0.13       0.00         15          0          0        314         25          0
  gomory           :       0.04       0.00         10          0          0          2          2          0
  impliedbounds    :       0.01       0.00         81          0          0        636        141          0
  intobj           :       0.00       0.00          0          0          0          0          0          0
  mcf              :       0.00       0.00          1          0          0          0          0          0
  oddcycle         :       0.00       0.00          0          0          0          0          0          0
  rapidlearning    :       0.00       0.00          0          0          0          0          0          0
  strongcg         :       0.08       0.00         20          0          0         37          4          0
  zerohalf         :       0.00       0.00          0          0          0          0          0          0
Pricers            :   ExecTime  SetupTime      Calls       Vars
  problem variables:       0.00          -          0          0
Branching Rules    :   ExecTime  SetupTime   BranchLP  BranchExt   BranchPS    Cutoffs    DomReds       Cuts      Conss   Children
  allfullstrong    :       0.00       0.00          0          0          0          0          0          0          0          0
  cloud            :       0.00       0.00          0          0          0          0          0          0          0          0
  distribution     :       0.00       0.00          0          0          0          0          0          0          0          0
  fullstrong       :       0.00       0.00          0          0          0          0          0          0          0          0
  inference        :       0.00       0.00          0          0          0          0          0          0          0          0
  leastinf         :       0.00       0.00          0          0          0          0          0          0          0          0
  mostinf          :       0.00       0.00          0          0          0          0          0          0          0          0
  multaggr         :       0.00       0.00          0          0          0          0          0          0          0          0
  nodereopt        :       0.00       0.00          0          0          0          0          0          0          0          0
  pscost           :       0.00       0.00          0          0          0          0          0          0          0          0
  random           :       0.00       0.00          0          0          0          0          0          0          0          0
  relpscost        :      17.10       0.00    2117774          0          0          0      51692          0       -446    4227460
Primal Heuristics  :   ExecTime  SetupTime      Calls      Found       Best
  LP solutions     :       0.00          -          -          4          -
  pseudo solutions :       0.00          -          -          0          -
  strong branching :       0.00          -          -          0          -
  SpaGreedy        :     375.78       0.00     318589          2          1
  actconsdiving    :       0.00       0.00          0          0          0
  bound            :       0.00       0.00          0          0          0
  clique           :       0.00       0.00          0          0          0
  coefdiving       :      30.40       0.00      11177          0          0
  crossover        :       1.13       0.00          2          0          0
  dins             :       0.00       0.00          0          0          0
  distributiondivin:      54.57       0.00      11177          0          0
  dualval          :       0.00       0.00          0          0          0
  feaspump         :      18.99       0.00       2182          0          0
  fixandinfer      :       0.00       0.00          0          0          0
  fracdiving       :      29.73       0.00      11177          0          0
  guideddiving     :      31.32       0.00      11177          0          0
  indicator        :       0.34       0.00          0          0          0
  intdiving        :       0.00       0.00          0          0          0
  intshifting      :       0.52       0.00        188          0          0
  linesearchdiving :      28.75       0.00      11178          0          0
  localbranching   :       0.00       0.00          0          0          0
  mutation         :       0.00       0.00          0          0          0
  nlpdiving        :       0.06       0.00          0          0          0
  objpscostdiving  :      18.88       0.00       2781          0          0
  octane           :       0.00       0.00          0          0          0
  ofins            :       0.00       0.00          0          0          0
  oneopt           :       0.76       0.00          4          0          0
  proximity        :       0.00       0.00          0          0          0
  pscostdiving     :      29.32       0.00      11177          0          0
  randrounding     :       1.30       0.00     142127          0          0
  rens             :       0.40       0.00          1          0          0
  reoptsols        :       0.00       0.00          0          0          0
  rins             :       4.42       0.00        102          0          0
  rootsoldiving    :      20.36       0.00       3430          0          0
  rounding         :       0.76       0.00      20481          0          0
  shiftandpropagate:       0.00       0.00          0          0          0
  shifting         :       1.79       0.00       5631          0          0
  simplerounding   :       0.27       0.00          0          0          0
  subnlp           :       0.51       0.00          0          0          0
  trivial          :       0.00       0.00          2          0          0
  trivialnegation  :       0.00       0.00          0          0          0
  trysol           :       0.69       0.00          0          0          0
  twoopt           :       0.00       0.00          0          0          0
  undercover       :       0.00       0.00          1          0          0
  vbounds          :       0.00       0.00          0          0          0
  veclendiving     :      31.81       0.00      11178          0          0
  zeroobj          :       0.00       0.00          0          0          0
  zirounding       :       0.70       0.00       1000          0          0
  other solutions  :          -          -          -          0          -
Diving Statistics  :      Calls      Nodes   LP Iters Backtracks   MinDepth   MaxDepth   AvgDepth  NLeafSols  MinSolDpt  MaxSolDpt  AvgSolDpt
  actconsdiving    :          0          -          -          -          -          -          -          -          -          -          -
  coefdiving       :      11177      76905     678143      14893         18         42       27.7          -          -          -          -
  distributiondivin:      11177      68079     727981      15217         17         43       26.9          -          -          -          -
  fracdiving       :      11177      75952     759282      17573         18         48       27.3          -          -          -          -
  guideddiving     :      11177      77619     819806      17934         17         46       27.7          -          -          -          -
  linesearchdiving :      11178      67733     703377      17307         18         39       26.6          -          -          -          -
  pscostdiving     :      11177      84677     701995      14148         18         50       28.4          -          -          -          -
  veclendiving     :      11178      75833     678040      19394         17         37       27.2          -          -          -          -
LP                 :       Time      Calls Iterations  Iter/call   Iter/sec  Time-0-It Calls-0-It
  primal LP        :       0.00         12          0       0.00          -       0.00         12
  dual LP          :    1519.62    4235354   62371215      17.30   41043.96      60.46     629893
  lex dual LP      :       0.00          0          0       0.00          -
  barrier LP       :       0.00          0          0       0.00          -       0.00          0
  diving/probing LP:     170.88     287040    7051366      24.57   41265.02
  strong branching :       5.44       5729     193682      33.81   35603.31
    (at root node) :          -         23       1679      73.00          -
  conflict analysis:       0.00          0          0       0.00          -
B&B Tree           :
  number of runs   :          1
  nodes            :    4016289 (2113730 internal, 1902559 leaves)
  nodes (total)    :    4016289 (2113730 internal, 1902559 leaves)
  nodes left       :     201382
  max depth        :         37
  max depth (total):         37
  backtracks       :    1106231 (27.5%)
  delayed cutoffs  :       9624
  repropagations   :     155981 (3461065 domain reductions, 7990 cutoffs)
  avg switch length:       6.23
  switching time   :     520.74
Root Node          :
  First LP value   : +3.00000000000000e+00
  First LP Iters   :        385 (38500.00 Iter/sec)
  First LP Time    :       0.01
  Final Dual Bound : +7.14286691673392e-03
  Final Root Iters :       4620
Solution           :
  Solutions found  :          6 (5 improvements)
  First Solution   : +7.79661400999970e-04   (in run 1, after 1 nodes, 0.05 seconds, depth 0, found by <SpaGreedy>)
  Gap First Sol.   :   infinite
  Gap Last Sol.    :      60.68 %
  Primal Bound     : +8.60553924999852e-04   (in run 1, after 590170 nodes, 520.97 seconds, depth 30, found by <relaxation>)
  Dual Bound       : +1.19347052686188e-03
  Gap              :      38.69 %
  Avg. Gap         :      39.97 % (143875.50 primal-dual integral)
